LKH-1.3/thing.out
NAME : burma14.tour
COMMENT : Length = 3323
TYPE : TOUR
DIMENSION : 14
TOUR_SECTION  
12
6
5
4
3
14
2
1
10
9
11
8
13
7
-1
EOF
